
Gurobi 9.1.2 (linux64, gurobi_cl) logging started Mon Mar 14 20:15:40 2022

Using license file /home/zhangh5/work/software/gurobi912/gurobi.lic
Set parameter LogFile to value gurobi.log

Gurobi 9.1.2 (linux64, gurobi_cl) logging started Mon Mar 14 20:15:40 2022

Using license file /home/zhangh5/work/software/gurobi912/gurobi.lic
Set parameter LogFile to value gurobi.log
